c description: Random 3-CNF over 22 variables and 94 clauses
c generator: CNFgen (0.9.2)
c copyright: (C) 2012-2022 Massimo Lauria <massimo.lauria@uniroma1.it>
c url: https://massimolauria.net/cnfgen
c command line: cnfgen --output ../CNF/22_bit_94_17.cnf randkcnf 3 22 94
c
p cnf 22 94
2 14 16 0
8 10 14 0
3 13 -18 0
3 -8 12 0
12 19 -20 0
-1 17 18 0
-4 7 8 0
5 7 8 0
20 21 -22 0
8 9 -13 0
3 -10 16 0
6 8 19 0
5 6 -9 0
-2 8 20 0
-1 -17 20 0
1 -2 13 0
-5 -8 -10 0
14 -19 22 0
-2 21 -22 0
2 20 22 0
-5 12 -22 0
-2 -3 14 0
7 12 15 0
1 5 -7 0
-6 -7 19 0
-6 13 20 0
3 -13 18 0
9 -12 16 0
7 -13 22 0
-5 12 -13 0
-3 4 -13 0
-4 10 17 0
6 10 14 0
-12 -14 -16 0
-4 -5 14 0
-1 -17 -18 0
-10 14 19 0
-2 -5 -8 0
3 12 20 0
-1 -12 17 0
1 6 21 0
-9 -11 -13 0
-3 6 16 0
7 18 21 0
-5 -21 -22 0
2 -8 17 0
-5 -15 -19 0
3 11 12 0
-16 -17 18 0
-16 20 -21 0
5 -15 -22 0
-8 16 -21 0
13 14 19 0
-5 -12 18 0
-9 -16 -19 0
-5 11 15 0
-3 17 -19 0
5 11 16 0
-13 -17 -18 0
8 -15 -16 0
-10 14 -22 0
5 -9 15 0
8 12 15 0
11 -16 19 0
6 -8 17 0
-1 4 -22 0
-6 -15 -19 0
-19 -20 22 0
-8 -11 19 0
2 -14 -21 0
1 14 -20 0
-6 15 -21 0
-15 -19 21 0
6 -7 -21 0
-1 19 -22 0
3 10 -11 0
-3 14 -22 0
-5 -17 20 0
4 -15 21 0
-3 12 -15 0
-8 15 -22 0
-4 -12 19 0
-1 -12 -22 0
-2 -19 -22 0
2 -10 -11 0
10 11 -16 0
5 -6 -9 0
-4 -7 -10 0
11 20 -22 0
-3 4 -20 0
5 -7 -18 0
-19 20 21 0
-5 9 -17 0
-1 -12 14 0
